113632 100 1100 103 159 148 111 116 103 153 175 173 161 160 134 144 174 136 167 116 149 109 176 111 137 135 117 117 155 168 160 101 146 127 155 156 123 169 179 148 160 145 121 123 107 118 144 120 172 176 148 150 114 124 167 135 177 168 104 145 130 141 117 111 125 128 150 168 137 117 155 160 108 120 171 122 109 146 169 143 168 113 160 118 126 133 132 129 123 115 157 113 160 168 153 144 177 127 102 150 163 178 161 60 65 65 67 61 61 68 63 69 68 61 65 65 65 65 60 69 60 60 65 68 62 61 63 60 67 64 61 61 64 62 64 63 63 61 65 69 69 63 62 69 60 65 69 67 67 69 66 66 64 60 67 63 68 67 60 62 60 60 67 61 62 66 68 68 65 62 64 68 61 66 65 66 62 68 66 65 68 64 64 65 63 61 60 62 62 61 69 60 64 64 66 62 66 64 62 60 68 69 65
